p cnf 22 7
e 1 0
a 2 3 0
e 4 0
a 5 0
e 6 7 0
a 8 9 0
e 10 11 0
a 12 13 0
e 14 0
a 15 16 0
e 17 0
a 18 0
e 19 20 21 0
a 22 0
20 10 7 -19 0
-14 13 -8 -15 -22 0
9 -16 11 -6 -12 0
-15 20 -13 -6 -14 0
8 -16 10 -9 0
-18 -7 -8 -6 -10 0
1 -10 20 -2 0
